clasp version 3.0.5
Reading from stdin
Solving...
Answer: 1
labelV(lacI,up) labelV(g,down) labelV(le,up) labelV(camp,up) labelV(a,down) labelV(lacZ,down) labelV(lacY,up) labelV(li,up) receive(lacZ,up) receive(lacY,up) receive(lacI,up) receive(camp,up) receive(g,up) receive(li,up) receive(lacZ,down) receive(lacY,down) receive(a,down) receive(g,down) receive(le,down)
Answer: 2
labelV(lacI,up) labelV(g,down) labelV(le,up) labelV(camp,up) labelV(a,down) labelV(lacZ,down) labelV(lacY,down) labelV(li,down) receive(lacZ,up) receive(lacY,up) receive(lacI,up) receive(camp,up) receive(li,up) receive(le,up) receive(lacZ,down) receive(lacY,down) receive(a,down) receive(g,down) receive(li,down)
Answer: 3
labelV(lacI,up) labelV(g,down) labelV(le,up) labelV(camp,up) labelV(a,down) labelV(lacZ,down) labelV(lacY,down) labelV(li,up) receive(lacZ,up) receive(lacY,up) receive(lacI,up) receive(camp,up) receive(g,up) receive(li,up) receive(le,up) receive(lacZ,down) receive(lacY,down) receive(a,down) receive(g,down) receive(li,down)
SATISFIABLE

Models       : 3     
Calls        : 1
Time         : 0.001s (Solving: 0.00s 1st Model: 0.00s Unsat: 0.00s)
CPU Time     : 0.000s
